%%MatrixMarket matrix array real general
1033 1
-3.0335586090000e+00
-3.0293836040000e+00
-3.0339204570000e+00
-3.0320310310000e+00
-3.0332123750000e+00
-3.0295987430000e+00
-3.0348561010000e+00
 2.7650987440000e+00
 2.2183160660000e+00
 2.7651608390000e+00
 2.9093720010000e+00
 2.9094129370000e+00
 3.1059204580000e+00
 3.6010221060000e+00
 3.6010225320000e+00
 3.6009014100000e+00
 3.6804760770000e+00
 4.1620176980000e+00
 2.9091511030000e+00
 3.4160110480000e+00
 2.9089640380000e+00
 2.2815388730000e+00
 2.0741163680000e+00
 2.4318746990000e+00
 2.8742116270000e+00
 3.4313694600000e+00
 3.7191377780000e+00
 4.0674442260000e+00
 4.2777582480000e+00
 4.7588127100000e+00
 4.6685209280000e+00
 4.4847715280000e+00
 4.2187632220000e+00
 4.2187304290000e+00
 4.0344359000000e+00
 3.7928073930000e+00
 3.6281515670000e+00
 3.2562765340000e+00
 3.0788592690000e+00
 2.9510875630000e+00
 3.2999275870000e+00
 3.0788401260000e+00
 3.5528994960000e+00
 3.5529064590000e+00
 3.5528016930000e+00
 3.5529041270000e+00
 4.3662225250000e+00
 4.6985362400000e+00
 5.0842825150000e+00
 4.3833060680000e+00
 3.9162008320000e+00
 3.6279352590000e+00
 3.6281638060000e+00
 3.6282078440000e+00
 3.7929416130000e+00
 4.0346694290000e+00
 4.2189450190000e+00
 4.3795464060000e+00
 2.6750044810000e+00
 2.6738398290000e+00
 2.6738191570000e+00
 2.6701572040000e+00
 2.6743875020000e+00
 2.6753490250000e+00
 2.6716765460000e+00
 2.6721659920000e+00
 2.6724866110000e+00
 2.6748338920000e+00
 2.6750583440000e+00
 2.6771384950000e+00
 2.6736112050000e+00
 2.6757339910000e+00
 2.6750545340000e+00
 2.6713445190000e+00
 2.6753155640000e+00
 2.6678948510000e+00
 2.6758383980000e+00
 9.8174721780000e+00
 9.8167842010000e+00
 9.8181711830000e+00
 9.8202799360000e+00
 9.8182170420000e+00
 9.8194368100000e+00
 2.6857449000000e+00
 2.6823751560000e+00
 2.6685923140000e+00
 2.6848944500000e+00
 2.6825903670000e+00
 2.6743237760000e+00
 1.2379172280000e+00
 9.8185018960000e+00
 9.8172923750000e+00
-4.5310017150000e+00
-4.5341711130000e+00
-4.5365068350000e+00
-4.5476393010000e+00
 1.2383153700000e+00
 1.2385389800000e+00
 1.2380588400000e+00
-1.3051194790000e+00
-1.9437740750000e+00
-1.3048834270000e+00
-1.9436546400000e+00
-1.3045106220000e+00
-1.9432707930000e+00
-1.3046493140000e+00
 1.2517976120000e+00
 1.7314636670000e+00
 1.7316976470000e+00
 1.2512488570000e+00
 1.5686315180000e+00
 1.2515978840000e+00
 1.2507860270000e+00
 1.2517420190000e+00
 1.2508188160000e+00
 1.2515913200000e+00
 1.2508386990000e+00
 1.2517421980000e+00
 1.2506434450000e+00
 1.2510739750000e+00
 1.5659234400000e+00
 1.5675089170000e+00
 1.5608896410000e+00
 1.5678710480000e+00
 1.5645764920000e+00
 1.5686784590000e+00
 1.6572800520000e+00
 1.6604474860000e+00
 1.6602181180000e+00
 1.6569415100000e+00
 1.6573890520000e+00
 8.5913712460000e+00
 8.5964118890000e+00
 1.2179071850000e+00
 1.6579107540000e+00
 1.6572992380000e+00
 1.2171528140000e+00
 1.6576511460000e+00
 1.6573488090000e+00
 1.2174829910000e+00
 1.2177715110000e+00
 1.6582808480000e+00
 1.6575017030000e+00
 1.2174009670000e+00
 1.2176911940000e+00
 1.6574079640000e+00
 1.6572790510000e+00
 8.5878876780000e+00
 1.0664240280000e+00
 8.9059394140000e+00
 4.7547812500000e+00
 8.9066128020000e+00
 8.9036618750000e+00
 8.9096862620000e+00
 8.9045176720000e+00
 8.9097431090000e+00
 8.9082369220000e+00
 5.2122034450000e+00
 8.9076604050000e+00
 8.9078082270000e+00
 8.8984694120000e+00
 8.9026191270000e+00
 8.9039081420000e+00
 8.9072213250000e+00
 8.9015014110000e+00
 5.2041415030000e+00
 5.2056547280000e+00
 5.2002274150000e+00
 5.2041937720000e+00
 8.9037440350000e+00
 8.9103403480000e+00
 2.6654545690000e+00
 2.6648783460000e+00
-1.7742677370000e+00
-4.5240987680000e+00
-1.7773118690000e+00
 5.0669739360000e+00
 5.0679685570000e+00
 2.7587705150000e+00
 2.7589709810000e+00
 2.7633310020000e+00
 2.7554636510000e+00
 2.7324335090000e+00
 2.7554833110000e+00
 2.7334978330000e+00
 2.7575965070000e+00
-1.1181025930000e+00
-6.4484362760000e+00
-6.4494826920000e+00
-1.2975707440000e+00
 5.0726108480000e+00
 5.0704828240000e+00
 5.0649906420000e+00
 2.7576075110000e+00
 5.0703886710000e+00
 2.7647383150000e+00
 2.7597640420000e+00
 2.7650764380000e+00
 2.7582403580000e+00
 5.0673540640000e+00
 1.2378813230000e+00
 1.4275643870000e+00
 6.5831144310000e+00
 1.6677313380000e+00
 2.5707449270000e+00
 2.5758031320000e+00
 1.6694044290000e+00
 2.5728168880000e+00
 2.5702502950000e+00
 6.5861030460000e+00
 6.5742851930000e+00
 2.5671251250000e+00
 2.5704497540000e+00
 1.6687419850000e+00
 6.5815291470000e+00
 1.1090617230000e+00
 1.1099639040000e+00
 1.6374011940000e+00
 1.1104063120000e+00
 8.3644968080000e+00
 8.5778666530000e+00
 4.5090578010000e+00
 2.5708416890000e+00
 2.5735996990000e+00
 2.5733443100000e+00
 2.5739249950000e+00
 4.5178060670000e+00
 4.5139262950000e+00
 2.5716104320000e+00
 2.5674040260000e+00
 6.5851779660000e+00
 6.5812105920000e+00
 2.5654559900000e+00
 2.5681259620000e+00
 4.5157255210000e+00
 4.4853381740000e+00
 2.5710375360000e+00
 2.5710790800000e+00
 1.1096521310000e+00
 6.5742081730000e+00
 2.5715313230000e+00
 2.5678845950000e+00
 2.5678781250000e+00
 1.1085922330000e+00
-7.7430351850000e+00
-7.7311857940000e+00
-1.1139796360000e+00
-1.1114506670000e+00
-1.7239264010000e+00
-4.8182966460000e+00
-4.8190569510000e+00
 1.6929581620000e+00
 1.6921727110000e+00
 6.4030102150000e+00
 6.4032003060000e+00
 8.7513578920000e+00
 8.7505144510000e+00
 9.5305830350000e+00
 9.5296206800000e+00
 1.0380348570000e+00
 1.0379378900000e+00
 9.5289967810000e+00
 9.5300337150000e+00
 8.7484290050000e+00
 8.7483759830000e+00
 6.4019894900000e+00
 6.4018721420000e+00
 1.6873874990000e+00
 1.6883067640000e+00
-6.7037885810000e+00
-6.7038760650000e+00
-4.8255874010000e+00
-4.8257133560000e+00
-4.8151527270000e+00
-4.8143112080000e+00
-4.8145423020000e+00
-4.8146060640000e+00
-4.8147268460000e+00
-4.8275662530000e+00
-4.8266052470000e+00
-6.7065125850000e+00
-6.7054790830000e+00
 1.6871084240000e+00
 1.6870942330000e+00
 6.3989842930000e+00
 6.3989965100000e+00
 8.7232164970000e+00
 8.7232680450000e+00
 9.5049326150000e+00
 9.5060666770000e+00
 1.0349411540000e+00
 1.0350564500000e+00
 1.1795887430000e+00
 1.1797055890000e+00
 1.0349041600000e+00
 1.0349143030000e+00
 1.1240314730000e+00
 1.1236315560000e+00
 1.1239651050000e+00
 1.0337390940000e+00
 1.0336511590000e+00
 1.1238186340000e+00
 1.1238397360000e+00
 1.0348078860000e+00
 1.0349289890000e+00
 1.1797412190000e+00
 1.1796521240000e+00
 9.5087552340000e+00
 9.5088635770000e+00
 8.7216978390000e+00
 8.7218321410000e+00
 6.3740720120000e+00
 6.3762559960000e+00
 1.6617682020000e+00
 1.6628453310000e+00
-6.7285661120000e+00
-6.7274886940000e+00
-4.8496405980000e+00
-4.8485893240000e+00
-1.5215424730000e+00
-1.5215585060000e+00
-4.7217347270000e+00
-4.8299180280000e+00
-1.5210348210000e+00
-1.5210994160000e+00
-4.8485624590000e+00
-4.8486848670000e+00
-4.8377066290000e+00
-4.8392018160000e+00
-4.8377384170000e+00
-4.8392329270000e+00
-4.8406910680000e+00
-4.8480941140000e+00
-4.8481141180000e+00
-5.2137353400000e+00
-5.2127047770000e+00
-4.8482934670000e+00
-4.8482980860000e+00
-4.8502046320000e+00
-4.8501800230000e+00
-1.5218885270000e+00
-1.5228902300000e+00
-1.4798916520000e+00
-1.4788057780000e+00
-4.8986948880000e+00
-4.8936325100000e+00
-1.3981201930000e+00
-1.3975320540000e+00
-8.0210420970000e+00
-8.0200675120000e+00
 1.1049218090000e+00
 1.1049304560000e+00
 1.1047682570000e+00
 1.1047784620000e+00
-8.0499755600000e+00
-8.0489099870000e+00
-1.4417700060000e+00
-1.4302155010000e+00
-4.9310240710000e+00
-5.0249981800000e+00
-1.5178457750000e+00
-1.5187531960000e+00
-1.4755730000000e+00
-1.4754700410000e+00
-4.8512843940000e+00
-4.8501057730000e+00
-5.2131088080000e+00
-5.2129838430000e+00
-4.8492914710000e+00
-4.8480383910000e+00
-4.8522304970000e+00
 6.3745092090000e+00
 6.3735033970000e+00
 8.7218787650000e+00
 8.7219072890000e+00
 9.5034029290000e+00
 9.5044625410000e+00
 6.3739451490000e+00
 1.6609380720000e+00
 1.6609173080000e+00
-4.8532789720000e+00
-4.8533149260000e+00
-4.8430601320000e+00
-4.8455519240000e+00
-4.8418786670000e+00
-4.8442977000000e+00
-4.8433374430000e+00
-4.8548726930000e+00
-4.8538318140000e+00
-6.7357040370000e+00
-6.7357072240000e+00
-4.8517670400000e+00
-4.8517683480000e+00
-1.5246691630000e+00
-1.5236200180000e+00
-1.4817241420000e+00
-1.4827665010000e+00
-5.2159275590000e+00
-5.2150648910000e+00
-1.4425636590000e+00
-1.4423848950000e+00
-8.0910890170000e+00
-8.0803973710000e+00
 1.1045863830000e+00
 1.1045886010000e+00
-6.5972148070000e+00
-2.2093247410000e+00
-6.5995610410000e+00
-2.1987741540000e+00
-6.5990474720000e+00
-2.2000586300000e+00
-6.5986299100000e+00
-6.6759861100000e+00
-2.9761957680000e+00
-6.6737189550000e+00
-2.9559234370000e+00
-6.6740368530000e+00
-2.9507685010000e+00
-2.6000589550000e+00
-2.6010413340000e+00
-2.5999123600000e+00
-2.9747709670000e+00
-6.6747230030000e+00
-2.9791761410000e+00
-6.6756279500000e+00
-2.9804067070000e+00
-6.6759900610000e+00
-2.6016867520000e+00
-2.5985908480000e+00
-2.9874571200000e+00
-3.7012502360000e+00
 1.3622765610000e+00
 2.1903697630000e+00
 3.3116113800000e+00
 5.4225299510000e+00
 6.8147833240000e+00
 8.6534633830000e+00
 9.5477263650000e+00
 1.0593067760000e+00
 1.1435232500000e+00
 1.4222891630000e+00
 1.3603436700000e+00
 1.5396583900000e+00
 1.5395064840000e+00
 1.3602292450000e+00
 6.5440125830000e+00
 8.6893356140000e+00
-3.9070139330000e+00
-2.5024386970000e+00
-2.5011760210000e+00
 1.2155063470000e+00
 4.0560598470000e+00
 1.1634005880000e+00
 1.2109179050000e+00
-2.5075489500000e+00
-3.9102606920000e+00
-1.0886045300000e+00
 8.7344583240000e+00
 6.5390527760000e+00
 1.3603643380000e+00
 1.5391995360000e+00
 1.3594889200000e+00
 1.5392615760000e+00
 1.8780036520000e+00
 2.1672897440000e+00
 2.1674280350000e+00
 1.5814796170000e+00
-4.9317682920000e+00
-4.9325022300000e+00
-1.5608644360000e+00
 1.0965171690000e+00
 2.1674997460000e+00
 2.1670987480000e+00
 2.1669934310000e+00
 2.1247268180000e+00
 2.0748077970000e+00
 2.0221498090000e+00
 2.1483025340000e+00
 2.1480007080000e+00
 2.1274517700000e+00
 2.1532772630000e+00
 2.5819729200000e+00
 2.8078585520000e+00
 2.9524600790000e+00
 3.1484937160000e+00
 3.1483056030000e+00
 2.3916846730000e+00
 2.3915835370000e+00
 2.1743864300000e+00
 3.3229779470000e+00
 2.9962895610000e+00
 2.6538768070000e+00
 2.9966114440000e+00
 1.4496939870000e+00
 2.3244461860000e+00
 2.3234836500000e+00
 1.9553091240000e+00
 2.1170668950000e+00
 2.0859601660000e+00
 2.3239868320000e+00
 2.4536924540000e+00
 2.3237332500000e+00
 2.3237591190000e+00
 2.1931701330000e+00
 2.9516517460000e+00
 3.1546908140000e+00
 2.8882492100000e+00
 3.3397882030000e+00
 4.2045437480000e+00
 4.0865018440000e+00
 4.2043694170000e+00
 3.3403820320000e+00
 2.8879945030000e+00
 3.1542801640000e+00
 2.9520169960000e+00
 2.1934277020000e+00
 2.4536314210000e+00
 2.3240563990000e+00
 2.4741594950000e+00
 2.4742991180000e+00
 1.2239192640000e+00
 2.0736516810000e+00
 2.3816686330000e+00
 2.2198968970000e+00
 2.9170823170000e+00
 2.6357216850000e+00
 2.9168930350000e+00
 2.3525881910000e+00
 3.4741081970000e+00
 3.7621973160000e+00
 3.7323599080000e+00
 3.1331021910000e+00
 3.3744063150000e+00
 3.1324491060000e+00
 3.3744607180000e+00
 3.7327395480000e+00
 3.7620296950000e+00
 2.3524007830000e+00
 2.7759494210000e+00
 2.9172261090000e+00
 2.6362284280000e+00
 2.9174517070000e+00
 1.8747569750000e+00
 1.9397376980000e+00
 1.7374937650000e+00
 1.9395724580000e+00
 1.5091382630000e+00
 1.5291120980000e+00
 1.5563005220000e+00
 1.5292790920000e+00
 1.5563297320000e+00
 1.5093470160000e+00
 1.8743405630000e+00
 1.9393356670000e+00
 1.7371481970000e+00
 2.9164505150000e+00
 2.6351016620000e+00
 2.9164601460000e+00
 2.4738885160000e+00
 2.4737908920000e+00
 1.2227265860000e+00
 2.0732136970000e+00
 2.3811146570000e+00
 2.2189908500000e+00
 2.3808431700000e+00
 2.1161758840000e+00
 1.4486019830000e+00
 2.9958710800000e+00
 2.6532760220000e+00
 2.5171262320000e+00
 2.1735639640000e+00
 2.3904983900000e+00
 2.1735057270000e+00
 2.6533497600000e+00
 4.2040520920000e+00
 4.2035443200000e+00
 4.0857177630000e+00
 4.2040081460000e+00
 3.3401050910000e+00
 2.8879620690000e+00
 3.1546884760000e+00
 2.1931305760000e+00
 2.4533050500000e+00
 2.0858326180000e+00
 2.1165901800000e+00
 1.9545959400000e+00
 1.4489295940000e+00
 1.9547157930000e+00
 2.3230804710000e+00
 2.4534851710000e+00
 2.0858192110000e+00
 2.1165655630000e+00
 2.0731321170000e+00
 1.2227462690000e+00
 2.4737050750000e+00
 2.3810620340000e+00
 2.2197719360000e+00
 2.9169605700000e+00
 2.7759381290000e+00
 2.3521512430000e+00
 2.7758197840000e+00
 2.9167815480000e+00
 1.9390621340000e+00
 1.7371621530000e+00
 1.9392126110000e+00
 1.8741140650000e+00
 1.8739253670000e+00
 1.5089779260000e+00
 1.5565520010000e+00
 1.5294095030000e+00
 1.5569266170000e+00
 1.5296554910000e+00
 1.5568287310000e+00
 1.5093979410000e+00
 1.8744128550000e+00
 2.1385911470000e+00
 2.1171099530000e+00
 2.4150656940000e+00
 3.0372655170000e+00
 3.6707679350000e+00
 3.6709013940000e+00
 4.2616614210000e+00
 4.4224288390000e+00
 4.5441243460000e+00
 4.7258407520000e+00
 4.7263816960000e+00
 4.5442378140000e+00
 4.4225383360000e+00
 4.2617787700000e+00
 4.5276846020000e+00
 4.7112223530000e+00
 4.8009156180000e+00
 4.6305229780000e+00
 4.5139706970000e+00
-9.3227902590000e+00
-9.3223497630000e+00
-9.3197571280000e+00
-9.3175850210000e+00
 4.1175196270000e+00
 4.0863656570000e+00
 4.2043411820000e+00
 3.3403426460000e+00
 2.8885306300000e+00
 3.1548667000000e+00
 2.1930072070000e+00
 2.3238665460000e+00
 2.4535994730000e+00
 2.1932875090000e+00
 3.1547586670000e+00
 2.8884472490000e+00
 3.3406044530000e+00
 4.0865481740000e+00
 4.2046282950000e+00
 3.6436278940000e+00
 3.6434680880000e+00
 2.3908711150000e+00
 2.1743216780000e+00
 2.1742255890000e+00
 2.3911742430000e+00
 3.1485227010000e+00
 2.9520921790000e+00
 2.8073811530000e+00
 2.5812711780000e+00
 2.1272250640000e+00
 2.1482851740000e+00
 2.0220428810000e+00
 2.0748104030000e+00
 2.1249290910000e+00
 2.1671862860000e+00
 2.1670699500000e+00
 1.8774667080000e+00
 1.5388857780000e+00
 1.3591989800000e+00
 1.3010160070000e+00
 1.4213218400000e+00
 1.1425677660000e+00
 9.5413420920000e+00
 6.8056364450000e+00
 5.4106243990000e+00
 3.3012900580000e+00
 2.1825960180000e+00
 1.3581329900000e+00
-3.7068571820000e+00
-2.9953447020000e+00
-2.6030784470000e+00
-2.6054561400000e+00
-2.6059529530000e+00
-2.6083633810000e+00
-2.6084988760000e+00
-6.6832520960000e+00
-3.0561865430000e+00
-6.6813915680000e+00
-3.0493597910000e+00
-6.6829218090000e+00
-3.0460873970000e+00
-1.0417675000000e+00
-1.1647449060000e+00
-1.0413968550000e+00
-1.0407045810000e+00
-1.0415023170000e+00
-8.7785315510000e+00
-8.2003840360000e+00
-8.2082158390000e+00
-8.7829263390000e+00
-8.2063687860000e+00
-8.8132522460000e+00
-1.1725328260000e+00
-1.1654466830000e+00
-1.0428353520000e+00
-1.1653514710000e+00
-1.1724800380000e+00
-8.8223712090000e+00
-1.1726661840000e+00
-1.0428973360000e+00
-1.1656004180000e+00
-1.1728118830000e+00
-8.8278027270000e+00
-8.7942391140000e+00
-1.1656493690000e+00
-1.5401270180000e+00
-1.2019655200000e+00
-1.2021515990000e+00
-6.3424292710000e+00
-1.3196306180000e+00
-1.9581464940000e+00
-1.3194786670000e+00
-1.9582593710000e+00
-1.3194389650000e+00
-1.9578841480000e+00
-1.3192493320000e+00
-1.0374266070000e+00
-1.0374138870000e+00
-1.0372391860000e+00
-1.5353368510000e+00
-1.0412433760000e+00
-1.0415978010000e+00
-1.0416571660000e+00
-1.0413997960000e+00
-1.0415016270000e+00
-1.0415429140000e+00
-1.1648568020000e+00
-1.5388556090000e+00
-1.2009914960000e+00
-1.2011047360000e+00
-1.2921898730000e+00
-1.9305678460000e+00
-1.2922965320000e+00
-1.9300311460000e+00
-1.2917918870000e+00
-1.9303341110000e+00
-1.2917368850000e+00
-1.9305278630000e+00
-1.2914549560000e+00
-1.9310319840000e+00
-1.2920251470000e+00
 7.8230273120000e+00
 9.0988104000000e+00
 7.8241186620000e+00
-2.1856571890000e+00
 3.2526044640000e+00
-2.1762966050000e+00
-4.6172576920000e+00
-1.1126054320000e+00
-1.5222090400000e+00
-1.1131203130000e+00
-2.1859145940000e+00
 3.2524563200000e+00
-4.6178521500000e+00
-1.1126493930000e+00
-1.5226035080000e+00
-1.1129330260000e+00
 9.0960008080000e+00
 7.8292687130000e+00
-2.1768414210000e+00
-4.6173802190000e+00
-2.1769363990000e+00
-4.6171907430000e+00
-1.1124373370000e+00
-1.5222301830000e+00
-1.1134346780000e+00
 9.1010265040000e+00
 7.8214255070000e+00
-2.1862058320000e+00
 3.2520489350000e+00
-1.1130218020000e+00
-1.5220052960000e+00
-1.1126794040000e+00
 7.8248880920000e+00
 9.0980729070000e+00
 3.2516912630000e+00
-2.1865137380000e+00
-4.6176270110000e+00
-2.1773493760000e+00
-4.6173785820000e+00
 7.8253908500000e+00
 9.1036161240000e+00
-2.9105294530000e+00
-2.9082771680000e+00
-2.9054113010000e+00
-2.9068634780000e+00
-2.9062448390000e+00
-3.2939618190000e+00
-2.0641714360000e+00
-1.9571130800000e+00
-1.0638515330000e+00
-1.6738888780000e+00
-1.4281520810000e+00
-1.2937251960000e+00
-1.3977351540000e+00
-2.9375997650000e+00
-4.2050926730000e+00
-1.3862115760000e+00
-1.8952842040000e+00
-1.3923441890000e+00
-4.4119093950000e+00
-1.3885555250000e+00
-1.8978695920000e+00
-4.2072299840000e+00
-2.9383458170000e+00
-1.4023243580000e+00
-1.2962876210000e+00
-1.4311449140000e+00
-1.3959867500000e+00
-3.2887604740000e+00
-6.6221914350000e+00
-7.8917784940000e+00
-1.1099379340000e+00
 3.7550325540000e+00
 3.8018059270000e+00
 3.7986758970000e+00
-6.6716729350000e+00
 2.9482127790000e+00
 3.2603362250000e+00
-1.1621979220000e+00
-1.1674366900000e+00
 3.2504283550000e+00
 2.9436779080000e+00
-6.6776648980000e+00
 3.7959429840000e+00
 3.8001054830000e+00
 3.7524006980000e+00
 8.5698950480000e+00
 9.2517081290000e+00
 2.5575015560000e+00
 6.1701342070000e+00
 7.7632423020000e+00
 9.9510207700000e+00
 1.0849143920000e+00
 9.9600634510000e+00
 1.1401652870000e+00
 1.1725494120000e+00
 1.1881653010000e+00
 1.0220237020000e+00
 1.0214778460000e+00
 1.1878176620000e+00
 1.1723951600000e+00
 1.1397639080000e+00
 9.9590228710000e+00
 1.0848293520000e+00
 9.9490674670000e+00
 7.7597853600000e+00
 6.1638619990000e+00
 2.5529261250000e+00
 9.2296853440000e+00
-2.8107742440000e+00
-4.2183034250000e+00
 5.6169450180000e+00
 6.2302671630000e+00
 1.3289767880000e+00
 1.5082843380000e+00
 1.8469752330000e+00
 2.1371312250000e+00
 2.0942135970000e+00
 1.7981599170000e+00
 1.4114907860000e+00
 1.0656154230000e+00
-1.1946251560000e+00
 7.9009379700000e+00
 1.1127248380000e+00
 1.7034936040000e+00
 1.9915706030000e+00
 2.0445100800000e+00
 2.0946173120000e+00
 2.1365752430000e+00
 2.0938313190000e+00
 1.7976144900000e+00
 1.4111354650000e+00
 1.0651157850000e+00
-1.1954048200000e+00
 7.8965585690000e+00
 1.1125743870000e+00
 1.5215541920000e+00
 1.7482331430000e+00
 2.2308290600000e+00
 1.5184540490000e+00
 4.0864663000000e+00
 1.0072300280000e+00
 1.3942210350000e+00
 1.9090252670000e+00
 1.2966666070000e+00
 2.1077782700000e+00
 2.1076673940000e+00
 2.0864920580000e+00
 2.3844455590000e+00
 3.0066577200000e+00
 3.6398847120000e+00
 3.9279810070000e+00
 3.8045319280000e+00
 4.0466908970000e+00
 4.2308147820000e+00
 4.3915934640000e+00
 4.5136470620000e+00
 4.6969829200000e+00
 5.1291271030000e+00
 5.1357875340000e+00
 4.9783624310000e+00
 4.6804796340000e+00
 4.4968034530000e+00
 4.2305548740000e+00
 4.2300672370000e+00
 4.3914542690000e+00
 4.5130356030000e+00
 4.6970468620000e+00
 5.0956730230000e+00
 4.7103415900000e+00
 3.9366938200000e+00
 3.7933159720000e+00
 3.2681330090000e+00
 3.6398228480000e+00
 3.2681100730000e+00
 3.0904394120000e+00
 2.9623984580000e+00
 3.3114815460000e+00
 3.5642325050000e+00
 3.5643463950000e+00
 4.3779494900000e+00
 5.0961334110000e+00
 4.7101789560000e+00
 3.9364904980000e+00
 3.7936524380000e+00
 3.9277228480000e+00
 3.6398314880000e+00
 3.2679977890000e+00
 3.0902012540000e+00
 2.9625294830000e+00
 2.9625197330000e+00
 3.3112870860000e+00
 3.5643782220000e+00
 3.5643650310000e+00
 4.3779001160000e+00
 4.7103484230000e+00
 5.0962436790000e+00
 4.6977793610000e+00
 4.5131382670000e+00
 5.1288692750000e+00
 5.1354941410000e+00
 4.9783196610000e+00
 4.2893038940000e+00
 4.7703359820000e+00
 4.7702509890000e+00
 4.5995542210000e+00
 4.4832249360000e+00
 3.4276221380000e+00
 4.4831863390000e+00
-9.6346255000000e+00
 4.0861084710000e+00
 4.1732849020000e+00
 4.0861101260000e+00
-9.6365144250000e+00
 4.4829634740000e+00
 4.5993110500000e+00
 4.7703491560000e+00
 4.2892414890000e+00
 4.6803625010000e+00
 4.4964911840000e+00
 4.2302865630000e+00
 4.0463277040000e+00
 3.8045539170000e+00
 3.6398866650000e+00
 3.0065752570000e+00
 2.3844652980000e+00
 2.1075078140000e+00
 2.0864518580000e+00
 2.1074406370000e+00
 2.0864918110000e+00
 1.2964432480000e+00
 1.9084951090000e+00
 1.3937214700000e+00
 1.0066424360000e+00
-2.4265695590000e+00
-2.4446827070000e+00
-2.4259842040000e+00
 4.0866201230000e+00
 1.5181683530000e+00
 2.2301890540000e+00
 2.7766437690000e+00
 2.5505785330000e+00
 1.7478872500000e+00
 1.5212276350000e+00
 2.1175552590000e+00
 1.7027635980000e+00
 1.9911358310000e+00
 2.0438281570000e+00
 2.0940051820000e+00
 2.1362261900000e+00
 2.0934989810000e+00
 1.7974390440000e+00
 1.8466423660000e+00
 1.5079113020000e+00
 1.3283793730000e+00
 6.2218887790000e+00
 5.5702121430000e+00
-4.2221462320000e+00
-2.8176919570000e+00
 9.2022896120000e+00
 8.5209455000000e+00
 3.7499231890000e+00
-1.1210321910000e+00
-7.8998977400000e+00
-6.6315084370000e+00
-3.2948603490000e+00
-2.9452655610000e+00
-1.4085842080000e+00
-1.3047431800000e+00
-1.4009389710000e+00
-1.6780816830000e+00
-1.6832107000000e+00
-1.0766104710000e+00
-1.9655431060000e+00
-2.0778191330000e+00
-3.3084628810000e+00
-2.9138252810000e+00
-2.9170491480000e+00
